Minimize
	value: tt

Subject to
tt + 1024 s_1_1 > 0.0
tt - t_1_1 - 1024.000000 s_1_1 > -1023.256500
tt + 1024 s_2_1 > 0.0
tt - t_2_1 - 1024.000000 s_2_1 > -1021.764333
tt + 1024 s_1_2 > 0.0
tt - t_1_2 - 1024.000000 s_1_2 > -1023.116500
tt + 1024 s_2_2 > 0.0
tt - t_2_2 - 1024.000000 s_2_2 > -1022.539857
tt + 1024 s_1_3 > 0.0
tt - t_1_3 - 1024.000000 s_1_3 > -1020.848544
tt + 1024 s_2_3 > 0.0
tt - t_2_3 - 1024.000000 s_2_3 > -1017.769264
tt + 1024 s_1_4 > 0.0
tt - t_1_4 - 1024.000000 s_1_4 > -1018.024300
tt + 1024 s_2_4 > 0.0
tt - t_2_4 - 1024.000000 s_2_4 > -1014.882625
tt + 1024 s_1_5 > 0.0
tt - t_1_5 - 1028.000000 s_1_5 + 4.000000 s_1_3 > -1023.950500
tt + 1024 s_2_5 > 0.0
tt - t_2_5 - 1028.000000 s_2_5 + 4.000000 s_2_3 > -1023.031000
s_1_1 + s_2_1  = 1
s_1_2 + s_2_2  = 1
s_1_3 + s_2_3  = 1
s_1_4 + s_2_4  = 1
s_1_5 + s_2_5  = 1
s_1_1 + s_1_2 + 1024 r_1_1_2 >= 2
- s_1_1 - s_1_2 - 1024 r_1_1_2 >= -1025
t_1_1 - t_1_2 - 1024.000000 u_1_1_2 + 2048.000000 r_1_1_2 > -1023.116500
s_2_1 + s_2_2 + 1024 r_2_1_2 >= 2
- s_2_1 - s_2_2 - 1024 r_2_1_2 >= -1025
t_2_1 - t_2_2 - 1024.000000 u_2_1_2 + 2048.000000 r_2_1_2 > -1022.539857
s_1_1 + s_1_3 + 1024 r_1_1_3 >= 2
- s_1_1 - s_1_3 - 1024 r_1_1_3 >= -1025
t_1_1 - t_1_3 - 1024.000000 u_1_1_3 + 2048.000000 r_1_1_3 > -1020.848544
s_2_1 + s_2_3 + 1024 r_2_1_3 >= 2
- s_2_1 - s_2_3 - 1024 r_2_1_3 >= -1025
t_2_1 - t_2_3 - 1024.000000 u_2_1_3 + 2048.000000 r_2_1_3 > -1017.769264
s_1_1 + s_1_4 + 1024 r_1_1_4 >= 2
- s_1_1 - s_1_4 - 1024 r_1_1_4 >= -1025
t_1_1 - t_1_4 - 1024.000000 u_1_1_4 + 2048.000000 r_1_1_4 > -1018.024300
s_2_1 + s_2_4 + 1024 r_2_1_4 >= 2
- s_2_1 - s_2_4 - 1024 r_2_1_4 >= -1025
t_2_1 - t_2_4 - 1024.000000 u_2_1_4 + 2048.000000 r_2_1_4 > -1014.882625
t_1_5 - t_1_1 - 1024.000000 s_1_1 > -1023.256500
t_1_5 - t_2_1 - 1024.000000 s_2_1 > -1021.764333
t_2_5 - t_1_1 - 1024.000000 s_1_1 > -1023.256500
t_2_5 - t_2_1 - 1024.000000 s_2_1 > -1021.764333
s_1_2 + s_1_1 + 1024 r_1_1_2 >= 2
- s_1_2 - s_1_1 - 1024 r_1_1_2 >= -1025
t_1_2 - t_1_1 + 1024.000000 u_1_1_2 + 2048.000000 r_1_1_2 > 0.743500
s_2_2 + s_2_1 + 1024 r_2_1_2 >= 2
- s_2_2 - s_2_1 - 1024 r_2_1_2 >= -1025
t_2_2 - t_2_1 + 1024.000000 u_2_1_2 + 2048.000000 r_2_1_2 > 2.235667
s_1_2 + s_1_3 + 1024 r_1_2_3 >= 2
- s_1_2 - s_1_3 - 1024 r_1_2_3 >= -1025
t_1_2 - t_1_3 - 1024.000000 u_1_2_3 + 2048.000000 r_1_2_3 > -1020.848544
s_2_2 + s_2_3 + 1024 r_2_2_3 >= 2
- s_2_2 - s_2_3 - 1024 r_2_2_3 >= -1025
t_2_2 - t_2_3 - 1024.000000 u_2_2_3 + 2048.000000 r_2_2_3 > -1017.769264
s_1_2 + s_1_4 + 1024 r_1_2_4 >= 2
- s_1_2 - s_1_4 - 1024 r_1_2_4 >= -1025
t_1_2 - t_1_4 - 1024.000000 u_1_2_4 + 2048.000000 r_1_2_4 > -1018.024300
s_2_2 + s_2_4 + 1024 r_2_2_4 >= 2
- s_2_2 - s_2_4 - 1024 r_2_2_4 >= -1025
t_2_2 - t_2_4 - 1024.000000 u_2_2_4 + 2048.000000 r_2_2_4 > -1014.882625
t_1_5 - t_1_2 - 1024.000000 s_1_2 > -1023.116500
t_1_5 - t_2_2 - 1024.000000 s_2_2 > -1022.539857
t_2_5 - t_1_2 - 1024.000000 s_1_2 > -1023.116500
t_2_5 - t_2_2 - 1024.000000 s_2_2 > -1022.539857
s_1_3 + s_1_1 + 1024 r_1_1_3 >= 2
- s_1_3 - s_1_1 - 1024 r_1_1_3 >= -1025
t_1_3 - t_1_1 + 1024.000000 u_1_1_3 + 2048.000000 r_1_1_3 > 0.743500
s_2_3 + s_2_1 + 1024 r_2_1_3 >= 2
- s_2_3 - s_2_1 - 1024 r_2_1_3 >= -1025
t_2_3 - t_2_1 + 1024.000000 u_2_1_3 + 2048.000000 r_2_1_3 > 2.235667
s_1_3 + s_1_2 + 1024 r_1_2_3 >= 2
- s_1_3 - s_1_2 - 1024 r_1_2_3 >= -1025
t_1_3 - t_1_2 + 1024.000000 u_1_2_3 + 2048.000000 r_1_2_3 > 0.883500
s_2_3 + s_2_2 + 1024 r_2_2_3 >= 2
- s_2_3 - s_2_2 - 1024 r_2_2_3 >= -1025
t_2_3 - t_2_2 + 1024.000000 u_2_2_3 + 2048.000000 r_2_2_3 > 1.460143
s_1_3 + s_1_4 + 1024 r_1_3_4 >= 2
- s_1_3 - s_1_4 - 1024 r_1_3_4 >= -1025
t_1_3 - t_1_4 - 1024.000000 u_1_3_4 + 2048.000000 r_1_3_4 > -1018.024300
s_2_3 + s_2_4 + 1024 r_2_3_4 >= 2
- s_2_3 - s_2_4 - 1024 r_2_3_4 >= -1025
t_2_3 - t_2_4 - 1024.000000 u_2_3_4 + 2048.000000 r_2_3_4 > -1014.882625
t_1_5 - t_1_3 - 1024.000000 s_1_3 > -1020.848544
t_1_5 - t_2_3 - 1024.000000 s_2_3 > -1017.769264
t_2_5 - t_1_3 - 1024.000000 s_1_3 > -1020.848544
t_2_5 - t_2_3 - 1024.000000 s_2_3 > -1017.769264
s_1_4 + s_1_1 + 1024 r_1_1_4 >= 2
- s_1_4 - s_1_1 - 1024 r_1_1_4 >= -1025
t_1_4 - t_1_1 + 1024.000000 u_1_1_4 + 2048.000000 r_1_1_4 > 0.743500
s_2_4 + s_2_1 + 1024 r_2_1_4 >= 2
- s_2_4 - s_2_1 - 1024 r_2_1_4 >= -1025
t_2_4 - t_2_1 + 1024.000000 u_2_1_4 + 2048.000000 r_2_1_4 > 2.235667
s_1_4 + s_1_2 + 1024 r_1_2_4 >= 2
- s_1_4 - s_1_2 - 1024 r_1_2_4 >= -1025
t_1_4 - t_1_2 + 1024.000000 u_1_2_4 + 2048.000000 r_1_2_4 > 0.883500
s_2_4 + s_2_2 + 1024 r_2_2_4 >= 2
- s_2_4 - s_2_2 - 1024 r_2_2_4 >= -1025
t_2_4 - t_2_2 + 1024.000000 u_2_2_4 + 2048.000000 r_2_2_4 > 1.460143
s_1_4 + s_1_3 + 1024 r_1_3_4 >= 2
- s_1_4 - s_1_3 - 1024 r_1_3_4 >= -1025
t_1_4 - t_1_3 + 1024.000000 u_1_3_4 + 2048.000000 r_1_3_4 > 3.151456
s_2_4 + s_2_3 + 1024 r_2_3_4 >= 2
- s_2_4 - s_2_3 - 1024 r_2_3_4 >= -1025
t_2_4 - t_2_3 + 1024.000000 u_2_3_4 + 2048.000000 r_2_3_4 > 6.230736
t_1_5 - t_1_4 - 1024.000000 s_1_4 > -1018.024300
t_1_5 - t_2_4 - 1024.000000 s_2_4 > -1014.882625
t_2_5 - t_1_4 - 1024.000000 s_1_4 > -1018.024300
t_2_5 - t_2_4 - 1024.000000 s_2_4 > -1014.882625
Binary
s_1_1
s_2_1
s_1_2
s_2_2
s_1_3
s_2_3
s_1_4
s_2_4
s_1_5
s_2_5
u_1_1_2
r_1_1_2
u_2_1_2
r_2_1_2
u_1_1_3
r_1_1_3
u_2_1_3
r_2_1_3
u_1_1_4
r_1_1_4
u_2_1_4
r_2_1_4
u_1_2_3
r_1_2_3
u_2_2_3
r_2_2_3
u_1_2_4
r_1_2_4
u_2_2_4
r_2_2_4
u_1_3_4
r_1_3_4
u_2_3_4
r_2_3_4

End
